Zn2 O2                                  
   1.00000000000000     
     3.2373509406999998    0.0000000000000000    0.0000000000000000
    -1.6186754703999999    2.8036281555999998    0.0000000000000000
     0.0000000000000000    0.0000000000000000    5.2220611571999997
   Zn   O 
     2     2
Direct
  0.6666666870000029  0.3333333429999996  0.5005916949999971
  0.3333333429999996  0.6666666870000029  0.0005917000000011
  0.6666666870000029  0.3333333429999996  0.8797183040000007
  0.3333333429999996  0.6666666870000029  0.3797183040000007
 
  0.00000000E+00  0.00000000E+00  0.00000000E+00
  0.00000000E+00  0.00000000E+00  0.00000000E+00
  0.00000000E+00  0.00000000E+00  0.00000000E+00
  0.00000000E+00  0.00000000E+00  0.00000000E+00
