Zn2 O2
1.0
        3.2373509407         0.0000000000         0.0000000000
       -1.6186754704         2.8036281556         0.0000000000
        0.0000000000         0.0000000000         5.2220611572
   Zn    O
    2    2
Direct
     0.666666687         0.333333343         0.500591695
     0.333333343         0.666666687         0.000591700
     0.666666687         0.333333343         0.879718304
     0.333333343         0.666666687         0.379718304
