xyz: Mg1O1                              
   1.00000000000000     
     2.1063499999999999    2.1063499999999999    0.0000000000000000
     0.0000000000000000    2.1063499999999999    2.1063499999999999
     2.1063499999999999    0.0000000000000000    2.1063499999999999
   Mg   O 
     1     1
Direct
  0.0000000000000000  0.0000000000000000  0.0000000000000000
  0.5000000000000000  0.5000000000000000  0.5000000000000000
 
  0.00000000E+00  0.00000000E+00  0.00000000E+00
  0.00000000E+00  0.00000000E+00  0.00000000E+00
