Automatic mesh
0
Gamma  # option auto # set via svasp
25 25 25   # svasp/vasp_kpoints: prec high=36.0
0. 0. 0.
