xyz: Mg1O1
1.0   #uniform scale factor
2.10635000 2.10635000 0.00000000
0.00000000 2.10635000 2.10635000
2.10635000 0.00000000 2.10635000
 Mg O
 1 1
Direct
   0.0000000000    0.0000000000    0.0000000000      12     1        1  1
   0.5000000000    0.5000000000    0.5000000000       8     2        1  2
