Automatic mesh
0
Gamma  # option auto # set via svasp
15 15 15   # svasp/vasp_kpoints: prec high=36.0
0. 0. 0.
